(set-option :print-success false)
(set-logic QF_UF)
(declare-sort x51 0)
(declare-sort x132 0)
(declare-fun x26 (x132 x132) x132)
(declare-fun x43 () x132)
(declare-fun x120 () x132)
(declare-fun x143 () x132)
(declare-fun x113 (x132 x132) x132)
(declare-fun x114 () x132)
(declare-fun x13 () x132)
(assert (and (and (and (not (= x120 (x113 x120 x120))) (and (not (= (x113 x43 x43) x43)) (not (= x114 (x113 x114 x114))))) (not (= (x113 x143 x143) x143))) (not (= x13 (x113 x13 x13)))))
(assert (or (or (or (and (not (= (x113 (x113 x120 x13) x120) x13)) (and (and (not (= x120 (x113 (x113 x120 x120) x120))) (and (not (= x114 (x113 (x113 x120 x114) x120))) (not (= (x113 (x113 x120 x43) x120) x43)))) (not (= x143 (x113 (x113 x120 x143) x120))))) (or (and (not (= (x113 (x113 x43 x13) x43) x13)) (and (and (and (not (= x114 (x113 (x113 x43 x114) x43))) (not (= x43 (x113 (x113 x43 x43) x43)))) (not (= x120 (x113 (x113 x43 x120) x43)))) (not (= x143 (x113 (x113 x43 x143) x43))))) (and (not (= (x113 (x113 x114 x13) x114) x13)) (and (and (and (not (= (x113 (x113 x114 x114) x114) x114)) (not (= x43 (x113 (x113 x114 x43) x114)))) (not (= x120 (x113 (x113 x114 x120) x114)))) (not (= x143 (x113 (x113 x114 x143) x114))))))) (and (not (= (x113 (x113 x143 x13) x143) x13)) (and (not (= x143 (x113 (x113 x143 x143) x143))) (and (and (not (= (x113 (x113 x143 x114) x143) x114)) (not (= x43 (x113 (x113 x143 x43) x143)))) (not (= x120 (x113 (x113 x143 x120) x143))))))) (and (and (and (and (not (= (x113 (x113 x13 x43) x13) x43)) (not (= (x113 (x113 x13 x114) x13) x114))) (not (= (x113 (x113 x13 x120) x13) x120))) (not (= (x113 (x113 x13 x143) x13) x143))) (not (= x13 (x113 (x113 x13 x13) x13))))))
(assert (or (and (not (= x13 (x113 (x113 x13 x13) x13))) (and (not (= (x113 (x113 x143 x13) x143) x13)) (and (and (not (= x13 (x113 (x113 x114 x13) x114))) (not (= (x113 (x113 x43 x13) x43) x13))) (not (= (x113 (x113 x120 x13) x120) x13))))) (or (or (or (and (and (and (and (not (= x43 (x113 (x113 x114 x43) x114))) (not (= x43 (x113 (x113 x43 x43) x43)))) (not (= x43 (x113 (x113 x120 x43) x120)))) (not (= (x113 (x113 x143 x43) x143) x43))) (not (= x43 (x113 (x113 x13 x43) x13)))) (and (and (not (= x114 (x113 (x113 x143 x114) x143))) (and (and (not (= x114 (x113 (x113 x43 x114) x43))) (not (= (x113 (x113 x114 x114) x114) x114))) (not (= x114 (x113 (x113 x120 x114) x120))))) (not (= x114 (x113 (x113 x13 x114) x13))))) (and (and (not (= x120 (x113 (x113 x143 x120) x143))) (and (and (not (= x120 (x113 (x113 x114 x120) x114))) (not (= (x113 (x113 x43 x120) x43) x120))) (not (= (x113 (x113 x120 x120) x120) x120)))) (not (= (x113 (x113 x13 x120) x13) x120)))) (and (and (not (= (x113 (x113 x143 x143) x143) x143)) (and (and (not (= x143 (x113 (x113 x43 x143) x43))) (not (= x143 (x113 (x113 x114 x143) x114)))) (not (= (x113 (x113 x120 x143) x120) x143)))) (not (= (x113 (x113 x13 x143) x13) x143))))))
(assert (or (= x13 (x113 (x113 x13 x13) x13)) (or (= (x113 (x113 x143 x143) x143) x143) (or (= x120 (x113 (x113 x120 x120) x120)) (or (= x114 (x113 (x113 x114 x114) x114)) (= x43 (x113 (x113 x43 x43) x43)))))))
(assert (let ((x134 (x113 x114 x13)) (x95 (x113 x13 x114)) (x62 (x113 x13 x143)) (x101 (x113 x13 x13)) (x147 (x113 x43 x143)) (x124 (x113 x43 x13)) (x29 (x113 x120 x120)) (x97 (x113 x120 x43)) (x93 (x113 x43 x114)) (x2 (x113 x114 x120)) (x117 (x113 x43 x43)) (x55 (x113 x114 x143)) (x119 (x113 x43 x120)) (x108 (x113 x143 x43)) (x8 (x113 x143 x143)) (x121 (x113 x143 x13)) (x103 (x113 x143 x120)) (x109 (x113 x13 x120)) (x126 (x113 x120 x13)) (x158 (x113 x114 x43)) (x60 (x113 x13 x43)) (x154 (x113 x143 x114)) (x61 (x113 x114 x114)) (x123 (x113 x120 x143)) (x46 (x113 x120 x114))) (let ((x17 (= x143 x61)) (x146 (= x13 x123)) (x125 (= x143 x29)) (x110 (= x13 x93)) (x138 (= x93 x43)) (x90 (= x60 x13)) (x100 (= x134 x120)) (x53 (= x43 x2)) (x30 (= x97 x120)) (x148 (= x154 x43)) (x135 (= x134 x143)) (x3 (= x114 x101)) (x116 (= x43 x121)) (x35 (= x126 x120)) (x57 (= x108 x114)) (x91 (= x143 x2)) (x99 (= x143 x123)) (x15 (= x143 x109)) (x141 (= x13 x8)) (x98 (= x120 x121)) (x14 (= x114 x8)) (x47 (= x114 x29)) (x153 (= x13 x55)) (x127 (= x143 x126)) (x152 (= x2 x114)) (x85 (= x123 x114)) (x107 (= x114 x62)) (x78 (= x114 x134)) (x75 (= x55 x120)) (x131 (= x61 x114)) (x48 (= x147 x43)) (x58 (= x126 x43)) (x73 (= x120 x61)) (x111 (= x55 x143)) (x68 (= x154 x143)) (x28 (= x124 x143)) (x81 (= x46 x13)) (x52 (= x43 x103)) (x77 (= x119 x43)) (x102 (= x114 x109)) (x11 (= x123 x43)) (x139 (= x121 x114)) (x18 (= x43 x117)) (x79 (= x95 x114)) (x41 (= x121 x13)) (x37 (= x124 x114)) (x21 (= x43 x101)) (x151 (= x43 x97)) (x88 (= x143 x46)) (x39 (= x95 x13)) (x31 (= x2 x13)) (x9 (= x114 x126)) (x27 (= x120 x119)) (x25 (= x29 x13)) (x32 (= x120 x103)) (x22 (= x8 x120)) (x96 (= x143 x8)) (x118 (= x158 x43)) (x40 (= x143 x147)) (x133 (= x123 x120)) (x137 (= x61 x43)) (x130 (= x109 x43)) (x7 (= x2 x120)) (x122 (= x60 x114)) (x34 (= x46 x43)) (x128 (= x93 x120)) (x5 (= x43 x8)) (x92 (= x154 x120)) (x150 (= x117 x120)) (x19 (= x134 x13)) (x140 (= x119 x13)) (x105 (= x143 x101)) (x50 (= x143 x117)) (x76 (= x147 x120)) (x38 (= x43 x60)) (x44 (= x108 x143)) (x144 (= x120 x95)) (x82 (= x62 x43)) (x83 (= x114 x93)) (x89 (= x43 x55)) (x42 (= x154 x114)) (x36 (= x143 x103)) (x69 (= x120 x158)) (x115 (= x120 x108)) (x157 (= x95 x143)) (x49 (= x103 x13)) (x104 (= x13 x117)) (x54 (= x43 x95)) (x12 (= x13 x108)) (x86 (= x62 x120)) (x63 (= x13 x126)) (x84 (= x143 x60)) (x74 (= x114 x46)) (x67 (= x120 x124)) (x156 (= x97 x114)) (x23 (= x29 x43)) (x6 (= x124 x13)) (x142 (= x119 x114)) (x33 (= x97 x143)) (x87 (= x114 x117)) (x45 (= x134 x43)) (x94 (= x119 x143)) (x70 (= x13 x158)) (x20 (= x43 x124)) (x136 (= x29 x120)) (x149 (= x13 x154)) (x4 (= x114 x103)) (x71 (= x147 x114)) (x56 (= x62 x143)) (x16 (= x13 x101)) (x112 (= x13 x62)) (x65 (= x101 x120)) (x10 (= x143 x158)) (x159 (= x120 x60)) (x80 (= x120 x109)) (x59 (= x143 x121)) (x24 (= x114 x158)) (x64 (= x46 x120)) (x129 (= x61 x13)) (x1 (= x13 x109)) (x106 (= x97 x13)) (x72 (= x43 x108)) (x66 (= x147 x13)) (x145 (= x55 x114)) (x155 (= x93 x143))) (and (and (and (and (and (and (and (or (or (or x33 (or x10 x50)) x44) x84) (or (or (or x94 (or x155 x50)) x40) x28)) (and (and (or (or x76 (or (or x128 x150) x27)) x67) (or (or x115 (or (or x150 x69) x30)) x159)) (and (and (or x37 (or x71 (or (or x87 x83) x142))) (or (or (or (or x87 x24) x156) x57) x122)) (and (or (or x72 (or x151 (or x118 x18))) x38) (or (or x48 (or (or x138 x18) x77)) x20))))) (and (or (or (or x140 (or x104 x110)) x66) x6) (or (or x12 (or (or x70 x104) x106)) x90))) (and (and (or (or x153 (or x31 (or x129 x70))) x19) (or (or (or (or x110 x129) x81) x149) x39)) (and (and (and (or (or x92 (or (or x73 x128) x64)) x144) (or (or (or (or x73 x69) x7) x75) x100)) (and (and (or (or (or x34 (or x138 x137)) x148) x54) (or (or (or x53 (or x118 x137)) x89) x45)) (and (or x78 (or x145 (or x152 (or x131 x24)))) (or x79 (or (or x74 (or x131 x83)) x42))))) (and (or x135 (or x111 (or (or x10 x17) x91))) (or x157 (or (or (or x17 x155) x88) x68)))))) (and (and (or (or (or x25 (or x31 x140)) x49) x1) (or (or x146 (or (or x81 x106) x25)) x63)) (and (and (and (and (or (or x4 (or (or x142 x152) x47)) x102) (or (or (or x47 (or x156 x74)) x85) x9)) (and (or x130 (or (or (or x77 x53) x23) x52)) (or (or (or (or x34 x151) x23) x11) x58))) (and (or x35 (or (or (or x64 x30) x136) x133)) (or (or x32 (or (or x27 x7) x136)) x80))) (and (or (or (or (or x94 x91) x125) x36) x15) (or (or (or x125 (or x33 x88)) x99) x127))))) (and (and (or (or (or x49 (or x149 x12)) x141) x41) (or x112 (or x141 (or (or x66 x153) x146)))) (and (and (and (or x98 (or x22 (or x32 (or x92 x115)))) (or (or (or x133 (or x76 x75)) x22) x86)) (and (and (or x139 (or x14 (or (or x57 x42) x4))) (or (or x14 (or x85 (or x145 x71))) x107)) (and (or x116 (or x5 (or x52 (or x72 x148)))) (or x82 (or (or x11 (or x48 x89)) x5))))) (and (or (or (or x36 (or x68 x44)) x96) x59) (or x56 (or x96 (or x99 (or x40 x111)))))))) (and (and (or x16 (or (or (or x19 x6) x63) x41)) (or x16 (or x112 (or (or x90 x39) x1)))) (and (and (or (or (or (or x84 x157) x15) x56) x105) (or x105 (or x59 (or (or x28 x135) x127)))) (and (and (or x65 (or (or (or x100 x67) x35) x98)) (or (or (or (or x144 x159) x80) x86) x65)) (and (and (or x21 (or (or (or x20 x45) x58) x116)) (or x21 (or (or x130 (or x54 x38)) x82))) (and (or (or (or (or x78 x37) x9) x139) x3) (or (or x107 (or x102 (or x122 x79))) x3))))))))))
(assert (let ((x119 (x113 x143 x143)) (x147 (x113 x13 x13)) (x18 (x113 x43 x43)) (x117 (x113 x114 x114)) (x93 (x113 x120 x120))) (or (= (x113 x147 x147) x13) (or (or (or (= (x113 x117 x117) x114) (= x43 (x113 x18 x18))) (= (x113 x93 x93) x120)) (= (x113 x119 x119) x143)))))
(assert (let ((x119 (x113 x143 x143)) (x147 (x113 x13 x13)) (x93 (x113 x120 x120)) (x117 (x113 x114 x114)) (x18 (x113 x43 x43))) (or (and (not (= x13 x147)) (and (not (= x119 x13)) (and (and (not (= x18 x13)) (not (= x13 x117))) (not (= x13 x93))))) (or (or (and (not (= x120 x147)) (and (and (and (not (= x120 x18)) (not (= x117 x120))) (not (= x120 x93))) (not (= x120 x119)))) (or (and (not (= x147 x114)) (and (and (not (= x93 x114)) (and (not (= x117 x114)) (not (= x114 x18)))) (not (= x119 x114)))) (and (and (and (not (= x43 x93)) (and (not (= x43 x18)) (not (= x117 x43)))) (not (= x119 x43))) (not (= x43 x147))))) (and (not (= x143 x147)) (and (not (= x119 x143)) (and (not (= x143 x93)) (and (not (= x18 x143)) (not (= x143 x117))))))))))
(assert (let ((x60 (x113 x43 x120)) (x124 (x113 x43 x114)) (x138 (x113 x43 x143)) (x119 (x113 x143 x43)) (x137 (x113 x114 x143)) (x50 (x113 x120 x120)) (x2 (x113 x13 x143)) (x118 (x113 x13 x120)) (x46 (x113 x13 x13)) (x117 (x113 x114 x43)) (x104 (x113 x143 x120)) (x108 (x113 x13 x114)) (x93 (x113 x120 x43)) (x97 (x113 x143 x114)) (x61 (x113 x143 x143)) (x158 (x113 x120 x114)) (x131 (x113 x143 x13)) (x24 (x113 x120 x143)) (x18 (x113 x43 x43)) (x55 (x113 x43 x13)) (x87 (x113 x114 x114)) (x83 (x113 x120 x13)) (x150 (x113 x114 x120)) (x147 (x113 x13 x43)) (x134 (x113 x114 x13))) (and (and (and (and (and (and (and (and (and (not (= x147 x46)) (and (and (not (= x147 x118)) (not (= x147 x108))) (not (= x147 x2)))) (not (= x118 x108))) (not (= x2 x108))) (not (= x108 x46))) (not (= x118 x2))) (not (= x46 x118))) (not (= x2 x46))) (and (and (and (and (not (= x55 x138)) (and (and (and (not (= x124 x55)) (and (not (= x138 x124)) (and (and (not (= x55 x18)) (and (not (= x18 x138)) (and (not (= x18 x60)) (not (= x124 x18))))) (not (= x60 x124))))) (not (= x138 x60))) (not (= x55 x60)))) (and (not (= x137 x134)) (and (and (not (= x150 x137)) (and (and (and (and (not (= x117 x134)) (and (and (not (= x150 x117)) (not (= x117 x87))) (not (= x137 x117)))) (not (= x150 x87))) (not (= x87 x137))) (not (= x134 x87)))) (not (= x150 x134))))) (and (and (not (= x83 x50)) (and (not (= x50 x24)) (and (not (= x158 x83)) (and (not (= x24 x158)) (and (not (= x158 x50)) (and (and (and (not (= x93 x50)) (not (= x93 x158))) (not (= x24 x93))) (not (= x83 x93)))))))) (not (= x83 x24)))) (and (and (not (= x131 x104)) (and (not (= x104 x61)) (and (and (not (= x97 x61)) (and (not (= x97 x104)) (and (not (= x131 x119)) (and (not (= x119 x61)) (and (not (= x97 x119)) (not (= x119 x104))))))) (not (= x97 x131))))) (not (= x131 x61))))) (and (and (and (and (not (= x24 x2)) (and (not (= x24 x61)) (and (not (= x2 x137)) (and (not (= x61 x137)) (and (not (= x24 x137)) (and (not (= x2 x138)) (and (not (= x138 x61)) (and (not (= x138 x24)) (not (= x138 x137)))))))))) (not (= x2 x61))) (and (and (and (and (and (not (= x158 x97)) (and (not (= x87 x108)) (and (not (= x97 x87)) (and (not (= x87 x158)) (and (and (not (= x124 x97)) (and (not (= x87 x124)) (not (= x124 x158)))) (not (= x124 x108))))))) (not (= x158 x108))) (not (= x97 x108))) (and (not (= x119 x147)) (and (and (not (= x93 x119)) (and (not (= x117 x147)) (and (not (= x119 x117)) (and (not (= x117 x93)) (and (not (= x18 x147)) (and (not (= x119 x18)) (and (not (= x18 x93)) (not (= x117 x18))))))))) (not (= x147 x93))))) (and (and (not (= x118 x50)) (and (and (and (not (= x150 x104)) (and (not (= x150 x50)) (and (not (= x118 x60)) (and (not (= x104 x60)) (and (not (= x50 x60)) (not (= x150 x60))))))) (not (= x118 x150))) (not (= x50 x104)))) (not (= x118 x104))))) (and (not (= x46 x131)) (and (not (= x83 x46)) (and (not (= x83 x131)) (and (not (= x46 x134)) (and (and (not (= x134 x83)) (and (not (= x55 x46)) (and (not (= x55 x131)) (and (not (= x55 x134)) (not (= x55 x83)))))) (not (= x134 x131)))))))))))
(assert (let ((x118 (x113 x120 x13)) (x119 (x113 x43 x143)) (x60 (x113 x120 x43)) (x50 (x113 x120 x120)) (x87 (x113 x114 x114)) (x24 (x113 x143 x120)) (x137 (x113 x143 x114)) (x124 (x113 x114 x43)) (x104 (x113 x120 x143)) (x117 (x113 x43 x114)) (x150 (x113 x120 x114)) (x46 (x113 x13 x13)) (x131 (x113 x13 x143)) (x147 (x113 x43 x13)) (x97 (x113 x114 x143)) (x61 (x113 x143 x143)) (x158 (x113 x114 x120)) (x2 (x113 x143 x13)) (x55 (x113 x13 x43)) (x93 (x113 x43 x120)) (x108 (x113 x114 x13)) (x138 (x113 x143 x43)) (x83 (x113 x13 x120)) (x18 (x113 x43 x43)) (x134 (x113 x13 x114))) (or (or (or (and (not (= x13 (x113 x118 x118))) (and (and (and (not (= (x113 x60 x60) x43)) (not (= x114 (x113 x150 x150)))) (not (= x120 (x113 x50 x50)))) (not (= x143 (x113 x104 x104))))) (or (and (and (not (= (x113 x97 x97) x143)) (and (and (not (= x43 (x113 x124 x124))) (not (= (x113 x87 x87) x114))) (not (= (x113 x158 x158) x120)))) (not (= (x113 x108 x108) x13))) (and (and (and (and (not (= (x113 x117 x117) x114)) (not (= (x113 x18 x18) x43))) (not (= x120 (x113 x93 x93)))) (not (= (x113 x119 x119) x143))) (not (= (x113 x147 x147) x13))))) (and (not (= x13 (x113 x2 x2))) (and (and (and (not (= x114 (x113 x137 x137))) (not (= x43 (x113 x138 x138)))) (not (= (x113 x24 x24) x120))) (not (= x143 (x113 x61 x61)))))) (and (and (not (= (x113 x131 x131) x143)) (and (not (= x120 (x113 x83 x83))) (and (not (= x43 (x113 x55 x55))) (not (= x114 (x113 x134 x134)))))) (not (= (x113 x46 x46) x13))))))
(assert (or (and (and (not (= (x113 x143 x13) x143)) (and (not (= (x113 x120 x13) x120)) (and (not (= x43 (x113 x43 x13))) (not (= x114 (x113 x114 x13)))))) (not (= (x113 x13 x13) x13))) (or (and (and (and (and (not (= x43 (x113 x43 x143))) (not (= (x113 x114 x143) x114))) (not (= (x113 x120 x143) x120))) (not (= (x113 x143 x143) x143))) (not (= x13 (x113 x13 x143)))) (or (and (not (= x13 (x113 x13 x120))) (and (and (and (not (= x114 (x113 x114 x120))) (not (= (x113 x43 x120) x43))) (not (= (x113 x120 x120) x120))) (not (= x143 (x113 x143 x120))))) (or (and (not (= (x113 x13 x114) x13)) (and (not (= x143 (x113 x143 x114))) (and (not (= x120 (x113 x120 x114))) (and (not (= (x113 x43 x114) x43)) (not (= (x113 x114 x114) x114)))))) (and (and (not (= x143 (x113 x143 x43))) (and (and (not (= x114 (x113 x114 x43))) (not (= (x113 x43 x43) x43))) (not (= x120 (x113 x120 x43))))) (not (= x13 (x113 x13 x43)))))))))
(assert (or (or (and (not (= (x113 x143 (x113 x143 x13)) x13)) (and (and (not (= x120 (x113 x143 (x113 x143 x120)))) (and (not (= x43 (x113 x143 (x113 x143 x43)))) (not (= x114 (x113 x143 (x113 x143 x114)))))) (not (= (x113 x143 (x113 x143 x143)) x143)))) (or (or (and (not (= (x113 x114 (x113 x114 x13)) x13)) (and (not (= x143 (x113 x114 (x113 x114 x143)))) (and (not (= x120 (x113 x114 (x113 x114 x120)))) (and (not (= x43 (x113 x114 (x113 x114 x43)))) (not (= x114 (x113 x114 (x113 x114 x114)))))))) (and (not (= (x113 x43 (x113 x43 x13)) x13)) (and (not (= x143 (x113 x43 (x113 x43 x143)))) (and (and (not (= x43 (x113 x43 (x113 x43 x43)))) (not (= (x113 x43 (x113 x43 x114)) x114))) (not (= (x113 x43 (x113 x43 x120)) x120)))))) (and (not (= x13 (x113 x120 (x113 x120 x13)))) (and (not (= (x113 x120 (x113 x120 x143)) x143)) (and (not (= x120 (x113 x120 (x113 x120 x120)))) (and (not (= x114 (x113 x120 (x113 x120 x114)))) (not (= (x113 x120 (x113 x120 x43)) x43)))))))) (and (not (= x13 (x113 x13 (x113 x13 x13)))) (and (and (and (not (= (x113 x13 (x113 x13 x114)) x114)) (not (= (x113 x13 (x113 x13 x43)) x43))) (not (= (x113 x13 (x113 x13 x120)) x120))) (not (= (x113 x13 (x113 x13 x143)) x143))))))
(assert (and (not (= x13 x143)) (and (not (= x13 x120)) (and (not (= x120 x143)) (and (not (= x13 x114)) (and (and (and (not (= x43 x13)) (and (and (not (= x114 x43)) (not (= x120 x43))) (not (= x43 x143)))) (not (= x114 x120))) (not (= x143 x114))))))))
(assert (and (and (and (= x43 (x113 x13 x13)) (= x114 (x113 x143 x120))) (= x143 (x113 x120 x120))) (= x13 (x113 x114 x120))))
(assert (let ((x34 (x113 x114 x114)) (x74 (x113 x143 x114)) (x64 (x113 x143 x120)) (x69 (x113 x43 x114)) (x154 (x113 x43 x43)) (x31 (x113 x13 x143)) (x10 (x113 x120 x43)) (x156 (x113 x114 x143)) (x30 (x113 x120 x143)) (x110 (x113 x13 x43)) (x27 (x113 x120 x13)) (x29 (x113 x114 x13)) (x7 (x113 x13 x120)) (x103 (x113 x120 x120)) (x57 (x113 x13 x13)) (x140 (x113 x143 x13)) (x73 (x113 x43 x120)) (x53 (x113 x114 x120)) (x106 (x113 x143 x143)) (x23 (x113 x120 x114)) (x155 (x113 x43 x143)) (x128 (x113 x114 x43)) (x123 (x113 x13 x114)) (x70 (x113 x43 x13)) (x17 (x113 x143 x43))) (let ((x147 (not (= x43 x10))) (x50 (not (= x43 x156))) (x90 (not (= x110 x13))) (x47 (not (= x114 x53))) (x129 (not (= x128 x114))) (x99 (not (= x120 x7))) (x117 (not (= x128 x43))) (x83 (not (= x43 x31))) (x104 (not (= x64 x43))) (x58 (not (= x155 x143))) (x77 (not (= x34 x114))) (x49 (not (= x120 x57))) (x9 (not (= x7 x143))) (x72 (not (= x114 x70))) (x55 (not (= x7 x43))) (x125 (not (= x30 x114))) (x136 (not (= x114 x17))) (x134 (not (= x27 x43))) (x62 (not (= x53 x120))) (x95 (not (= x114 x154))) (x36 (not (= x120 x70))) (x133 (not (= x120 x64))) (x54 (not (= x73 x143))) (x141 (not (= x34 x143))) (x63 (not (= x31 x13))) (x150 (not (= x74 x43))) (x81 (not (= x114 x106))) (x145 (not (= x10 x120))) (x115 (not (= x103 x120))) (x122 (not (= x64 x143))) (x80 (not (= x154 x13))) (x158 (not (= x53 x43))) (x18 (not (= x154 x43))) (x137 (not (= x43 x110))) (x76 (not (= x74 x120))) (x111 (not (= x120 x29))) (x96 (not (= x120 x27))) (x91 (not (= x114 x64))) (x4 (not (= x154 x120))) (x100 (not (= x34 x13))) (x8 (not (= x128 x120))) (x66 (not (= x154 x143))) (x60 (not (= x43 x155))) (x32 (not (= x155 x120))) (x37 (not (= x143 x123))) (x15 (not (= x17 x13))) (x97 (not (= x103 x43))) (x78 (not (= x143 x29))) (x148 (not (= x123 x114))) (x42 (not (= x57 x114))) (x121 (not (= x120 x69))) (x159 (not (= x140 x143))) (x39 (not (= x70 x13))) (x82 (not (= x53 x143))) (x46 (not (= x43 x57))) (x149 (not (= x140 x120))) (x98 (not (= x73 x13))) (x44 (not (= x120 x106))) (x88 (not (= x74 x114))) (x14 (not (= x120 x23))) (x25 (not (= x114 x110))) (x94 (not (= x114 x156))) (x130 (not (= x143 x23))) (x86 (not (= x13 x128))) (x68 (not (= x120 x110))) (x152 (not (= x23 x114))) (x61 (not (= x43 x123))) (x56 (not (= x155 x13))) (x138 (not (= x43 x106))) (x71 (not (= x120 x34))) (x112 (not (= x13 x29))) (x20 (not (= x143 x103))) (x84 (not (= x13 x53))) (x65 (not (= x23 x13))) (x28 (not (= x74 x13))) (x16 (not (= x13 x57))) (x67 (not (= x13 x69))) (x144 (not (= x143 x57))) (x124 (not (= x73 x43))) (x3 (not (= x143 x31))) (x45 (not (= x17 x143))) (x79 (not (= x143 x30))) (x1 (not (= x123 x13))) (x12 (not (= x31 x120))) (x35 (not (= x13 x10))) (x107 (not (= x110 x143))) (x89 (not (= x114 x27))) (x21 (not (= x156 x143))) (x19 (not (= x27 x13))) (x109 (not (= x114 x103))) (x146 (not (= x143 x69))) (x52 (not (= x114 x29))) (x24 (not (= x43 x70))) (x85 (not (= x73 x120))) (x40 (not (= x120 x123))) (x142 (not (= x73 x114))) (x33 (not (= x155 x114))) (x102 (not (= x106 x143))) (x6 (not (= x13 x7))) (x118 (not (= x30 x43))) (x11 (not (= x31 x114))) (x22 (not (= x120 x30))) (x126 (not (= x10 x114))) (x92 (not (= x120 x17))) (x127 (not (= x64 x13))) (x101 (not (= x70 x143))) (x108 (not (= x43 x17))) (x131 (not (= x43 x140))) (x116 (not (= x143 x74))) (x157 (not (= x13 x103))) (x48 (not (= x114 x7))) (x135 (not (= x156 x13))) (x2 (not (= x43 x29))) (x151 (not (= x114 x69))) (x75 (not (= x156 x120))) (x93 (not (= x43 x69))) (x139 (not (= x27 x143))) (x5 (not (= x114 x140))) (x87 (not (= x43 x23))) (x119 (not (= x43 x34))) (x105 (not (= x13 x106))) (x41 (not (= x140 x13))) (x38 (not (= x143 x10))) (x59 (not (= x30 x13))) (x153 (not (= x143 x128)))) (or (and (and (and (or x63 x41) (and (or x6 x19) (and (or x90 x39) (or x112 x1)))) (or x16 x16)) (and (and (and (and (or x59 x127) (and (and (or x35 x98) (or x65 x84)) (or x157 x157))) (or x6 x19)) (and (and (or x90 x39) (and (and (and (or x80 x80) (or x67 x86)) (or x35 x98)) (or x15 x56))) (and (or x112 x1) (and (or x135 x28) (and (and (or x86 x67) (or x100 x100)) (or x84 x65)))))) (and (or x63 x41) (and (or x105 x105) (and (and (or x135 x28) (or x56 x15)) (or x127 x59)))))) (or (or (or (and (and (and (or x131 x83) (and (and (or x104 x118) (and (or x150 x50) (or x60 x108))) (or x138 x138))) (and (and (and (or x24 x137) (and (and (and (or x18 x18) (or x117 x93)) (or x147 x124)) (or x108 x60))) (and (and (and (or x87 x158) (and (or x119 x119) (or x93 x117))) (or x50 x150)) (or x61 x2))) (and (and (or x104 x118) (and (and (or x87 x158) (or x147 x124)) (or x97 x97))) (or x134 x55)))) (and (or x46 x46) (and (and (or x134 x55) (and (or x137 x24) (or x61 x2))) (or x131 x83)))) (and (and (and (and (and (and (or x136 x33) (and (and (or x95 x95) (or x129 x151)) (or x142 x126))) (or x72 x25)) (and (and (and (and (or x77 x77) (or x151 x129)) (or x152 x47)) (or x94 x88)) (or x148 x52))) (and (or x48 x89) (and (and (or x109 x109) (and (or x126 x142) (or x152 x47))) (or x91 x125)))) (and (or x5 x11) (and (and (or x91 x125) (and (or x94 x88) (or x136 x33))) (or x81 x81)))) (and (or x42 x42) (and (and (or x48 x89) (and (or x148 x52) (or x25 x72))) (or x5 x11))))) (and (and (and (or x12 x149) (and (or x96 x99) (and (or x36 x68) (or x40 x111)))) (or x49 x49)) (and (and (and (or x96 x99) (and (and (and (or x62 x14) (or x145 x85)) (or x115 x115)) (or x22 x133))) (and (and (or x68 x36) (and (and (or x85 x145) (and (or x8 x121) (or x4 x4))) (or x32 x92))) (and (or x111 x40) (and (or x75 x76) (and (and (or x71 x71) (or x8 x121)) (or x62 x14)))))) (and (or x12 x149) (and (and (and (or x32 x92) (or x75 x76)) (or x133 x22)) (or x44 x44)))))) (and (and (and (or x3 x159) (and (or x102 x102) (and (or x79 x122) (and (or x21 x116) (or x58 x45))))) (and (and (and (and (or x116 x21) (and (and (or x153 x146) (or x141 x141)) (or x82 x130))) (or x78 x37)) (and (and (or x45 x58) (and (and (or x146 x153) (or x66 x66)) (or x38 x54))) (or x107 x101))) (and (or x9 x139) (and (or x122 x79) (and (or x20 x20) (and (or x54 x38) (or x130 x82))))))) (and (and (and (or x139 x9) (and (or x78 x37) (or x101 x107))) (or x159 x3)) (or x144 x144))))))))
(assert (or (or (or (or (and (and (and (not (= x114 (x113 x120 (x113 x114 x120)))) (and (not (= (x113 x43 (x113 x114 x43)) x114)) (not (= (x113 x114 (x113 x114 x114)) x114)))) (not (= (x113 x143 (x113 x114 x143)) x114))) (not (= (x113 x13 (x113 x114 x13)) x114))) (and (and (and (not (= x43 (x113 x120 (x113 x43 x120)))) (and (not (= x43 (x113 x114 (x113 x43 x114)))) (not (= (x113 x43 (x113 x43 x43)) x43)))) (not (= x43 (x113 x143 (x113 x43 x143))))) (not (= (x113 x13 (x113 x43 x13)) x43)))) (and (and (not (= (x113 x143 (x113 x120 x143)) x120)) (and (and (not (= (x113 x114 (x113 x120 x114)) x120)) (not (= (x113 x43 (x113 x120 x43)) x120))) (not (= x120 (x113 x120 (x113 x120 x120)))))) (not (= (x113 x13 (x113 x120 x13)) x120)))) (and (and (and (not (= (x113 x120 (x113 x143 x120)) x143)) (and (not (= (x113 x43 (x113 x143 x43)) x143)) (not (= x143 (x113 x114 (x113 x143 x114)))))) (not (= (x113 x143 (x113 x143 x143)) x143))) (not (= (x113 x13 (x113 x143 x13)) x143)))) (and (not (= x13 (x113 x13 (x113 x13 x13)))) (and (and (and (not (= x13 (x113 x114 (x113 x13 x114)))) (not (= x13 (x113 x43 (x113 x13 x43))))) (not (= x13 (x113 x120 (x113 x13 x120))))) (not (= (x113 x143 (x113 x13 x143)) x13))))))
(assert (not (and (= x43 (x113 x13 x13)) (and (= x114 (x113 x13 x143)) (and (= (x113 x13 x120) x120) (and (and (= (x113 x13 x43) x13) (and (and (and (= (x113 x143 x120) x114) (and (= (x113 x143 x114) x13) (and (and (= x120 (x113 x120 x13)) (and (and (= (x113 x120 x120) x143) (and (= x43 (x113 x120 x114)) (and (and (and (and (= (x113 x114 x120) x13) (and (= x120 (x113 x114 x114)) (and (and (and (and (= (x113 x43 x120) x43) (and (= (x113 x43 x114) x114) (= (x113 x43 x43) x143))) (= (x113 x43 x143) x120)) (= (x113 x43 x13) x13)) (= (x113 x114 x43) x43)))) (= x143 (x113 x114 x143))) (= (x113 x114 x13) x114)) (= x114 (x113 x120 x43))))) (= (x113 x120 x143) x13))) (= (x113 x143 x43) x120)))) (= x43 (x113 x143 x143))) (= (x113 x143 x13) x143))) (= (x113 x13 x114) x143)))))))
(assert (let ((x124 (not (= x43 (x113 x43 x120)))) (x134 (not (= (x113 x120 x13) x120))) (x108 (not (= (x113 x143 x43) x143))) (x83 (not (= x13 (x113 x13 x143)))) (x61 (not (= (x113 x13 x114) x13))) (x104 (not (= (x113 x143 x120) x143))) (x50 (not (= x114 (x113 x114 x143)))) (x97 (not (= x120 (x113 x120 x120)))) (x60 (not (= (x113 x43 x143) x43))) (x138 (not (= x143 (x113 x143 x143)))) (x46 (not (= x13 (x113 x13 x13)))) (x118 (not (= (x113 x120 x143) x120))) (x55 (not (= x13 (x113 x13 x120)))) (x158 (not (= x114 (x113 x114 x120)))) (x87 (not (= (x113 x120 x114) x120))) (x18 (not (= x43 (x113 x43 x43)))) (x137 (not (= x13 (x113 x13 x43)))) (x119 (not (= x114 (x113 x114 x114)))) (x150 (not (= (x113 x143 x114) x143))) (x147 (not (= x120 (x113 x120 x43)))) (x117 (not (= x114 (x113 x114 x43)))) (x131 (not (= x143 (x113 x143 x13)))) (x2 (not (= (x113 x114 x13) x114))) (x24 (not (= x43 (x113 x43 x13)))) (x93 (not (= (x113 x43 x114) x43)))) (and (and (or x46 x46) (and (and (and (or x24 x137) (or x2 x61)) (or x55 x134)) (or x83 x131))) (and (and (and (and (or x24 x137) (and (and (or x147 x124) (and (or x93 x117) (or x18 x18))) (or x60 x108))) (and (and (and (or x158 x87) (and (or x117 x93) (or x119 x119))) (or x50 x150)) (or x61 x2))) (and (or x55 x134) (and (or x118 x104) (and (or x97 x97) (and (or x87 x158) (or x124 x147)))))) (and (and (and (or x118 x104) (and (or x60 x108) (or x50 x150))) (or x138 x138)) (or x131 x83))))))
(assert (let ((x150 (x113 x120 x114)) (x24 (x113 x143 x120)) (x158 (x113 x114 x120)) (x137 (x113 x143 x114)) (x2 (x113 x143 x13)) (x147 (x113 x43 x13)) (x108 (x113 x114 x13)) (x50 (x113 x120 x120)) (x55 (x113 x13 x43)) (x60 (x113 x120 x43)) (x119 (x113 x43 x143)) (x104 (x113 x120 x143)) (x61 (x113 x143 x143)) (x134 (x113 x13 x114)) (x138 (x113 x143 x43)) (x131 (x113 x13 x143)) (x118 (x113 x120 x13)) (x18 (x113 x43 x43)) (x124 (x113 x114 x43)) (x97 (x113 x114 x143)) (x83 (x113 x13 x120)) (x93 (x113 x43 x120)) (x87 (x113 x114 x114)) (x117 (x113 x43 x114)) (x46 (x113 x13 x13))) (and (and (and (and (and (and (and (and (or (or (or (= x18 x120) (or (= x18 x114) (= x18 x43))) (= x143 x18)) (= x18 x13)) (or (= x117 x13) (or (= x143 x117) (or (= x117 x120) (or (= x117 x43) (= x114 x117)))))) (or (or (or (= x93 x120) (or (= x93 x114) (= x43 x93))) (= x143 x93)) (= x13 x93))) (or (or (or (= x120 x119) (or (= x119 x43) (= x119 x114))) (= x119 x143)) (= x119 x13))) (or (= x147 x13) (or (or (= x120 x147) (or (= x114 x147) (= x43 x147))) (= x147 x143)))) (and (or (= x108 x13) (or (= x143 x108) (or (or (= x108 x114) (= x108 x43)) (= x120 x108)))) (and (and (or (or (= x143 x158) (or (= x120 x158) (or (= x158 x114) (= x43 x158)))) (= x13 x158)) (and (or (= x13 x87) (or (= x143 x87) (or (= x120 x87) (or (= x87 x43) (= x87 x114))))) (or (= x124 x13) (or (= x124 x143) (or (= x124 x120) (or (= x124 x43) (= x114 x124))))))) (or (or (= x143 x97) (or (= x120 x97) (or (= x114 x97) (= x43 x97)))) (= x97 x13))))) (and (or (or (or (= x120 x118) (or (= x43 x118) (= x118 x114))) (= x118 x143)) (= x13 x118)) (and (or (= x104 x13) (or (= x143 x104) (or (= x104 x120) (or (= x114 x104) (= x43 x104))))) (and (or (or (= x143 x50) (or (or (= x50 x114) (= x43 x50)) (= x50 x120))) (= x50 x13)) (and (or (or (or (or (= x150 x114) (= x150 x43)) (= x120 x150)) (= x150 x143)) (= x13 x150)) (or (= x13 x60) (or (or (= x60 x120) (or (= x114 x60) (= x60 x43))) (= x143 x60)))))))) (and (and (and (and (or (or (= x143 x137) (or (= x120 x137) (or (= x137 x43) (= x114 x137)))) (= x137 x13)) (or (or (= x143 x138) (or (= x138 x120) (or (= x138 x43) (= x138 x114)))) (= x13 x138))) (or (= x24 x13) (or (= x24 x143) (or (or (= x24 x114) (= x43 x24)) (= x120 x24))))) (or (= x61 x13) (or (or (or (= x61 x114) (= x61 x43)) (= x120 x61)) (= x61 x143)))) (or (= x2 x13) (or (or (= x120 x2) (or (= x2 x43) (= x114 x2))) (= x143 x2))))) (and (and (and (or (or (or (= x120 x83) (or (= x114 x83) (= x43 x83))) (= x143 x83)) (= x13 x83)) (and (or (or (= x143 x55) (or (= x55 x120) (or (= x55 x43) (= x55 x114)))) (= x13 x55)) (or (or (= x143 x134) (or (or (= x134 x43) (= x114 x134)) (= x120 x134))) (= x13 x134)))) (or (= x131 x13) (or (= x143 x131) (or (= x131 x120) (or (= x114 x131) (= x43 x131)))))) (or (= x46 x13) (or (or (or (= x114 x46) (= x46 x43)) (= x46 x120)) (= x143 x46)))))))
(check-sat)
(exit)
